scip/project/solution/neos-3381206-awhea.sol

=obj= 453.00000000 
C0002 1 
C0003 1 
C0004 1 
C0005 1 
C0006 1 
C0007 1 
C0008 1 
C0009 1 
C0011 1 
C0012 1 
C0014 1 
C0015 1 
C0016 1 
C0017 1 
C0018 1 
C0019 1 
C0020 1 
C0021 1 
C0023 1 
C0024 1 
C0025 1 
C0026 1 
C0027 1 
C0028 1 
C0029 1 
C0030 1 
C0031 1 
C0032 1 
C0033 1 
C0035 1 
C0036 1 
C0037 1 
C0038 1 
C0039 1 
C0040 1 
C0041 1 
C0042 1 
C0043 1 
C0044 1 
C0045 1 
C0046 1 
C0048 1 
C0049 1 
C0050 1 
C0051 1 
C0052 1 
C0053 1 
C0054 1 
C0055 1 
C0056 1 
C0057 1 
C0058 1 
C0059 1 
C0060 1 
C0061 1 
C0062 1 
C0063 1 
C0064 1 
C0065 1 
C0066 1 
C0067 1 
C0068 1 
C0069 1 
C0070 1 
C0071 1 
C0072 1 
C0073 1 
C0074 1 
C0075 1 
C0076 1 
C0077 1 
C0078 1 
C0079 1 
C0080 1 
C0081 1 
C0082 1 
C0083 1 
C0084 1 
C0085 1 
C0086 1 
C0087 1 
C0088 1 
C0089 1 
C0090 1 
C0091 1 
C0092 1 
C0094 1 
C0095 1 
C0096 1 
C0097 1 
C0098 1 
C0099 1 
C0100 1 
C0101 1 
C0102 1 
C0103 1 
C0104 1 
C0105 1 
C0106 1 
C0107 1 
C0108 1 
C0109 1 
C0110 1 
C0111 1 
C0112 1 
C0113 1 
C0114 1 
C0116 1 
C0117 1 
C0118 1 
C0119 1 
C0120 1 
C0121 1 
C0122 1 
C0123 1 
C0124 1 
C0125 1 
C0126 1 
C0127 1 
C0128 1 
C0129 1 
C0130 1 
C0131 1 
C0132 1 
C0133 1 
C0134 1 
C0135 1 
C0136 1 
C0137 1 
C0138 1 
C0139 1 
C0140 1 
C0142 1 
C0143 1 
C0144 1 
C0145 1 
C0146 1 
C0147 1 
C0148 1 
C0150 1 
C0151 1 
C0152 1 
C0153 1 
C0154 1 
C0155 1 
C0156 1 
C0157 1 
C0158 1 
C0159 1 
C0160 1 
C0161 1 
C0162 1 
C0163 1 
C0164 1 
C0165 1 
C0166 1 
C0167 1 
C0168 1 
C0169 1 
C0170 1 
C0171 1 
C0173 1 
C0174 1 
C0175 1 
C0176 1 
C0177 1 
C0178 1 
C0179 1 
C0180 1 
C0181 1 
C0182 1 
C0183 1 
C0184 1 
C0185 1 
C0187 1 
C0188 1 
C0189 1 
C0190 1 
C0191 1 
C0192 1 
C0193 1 
C0194 1 
C0195 1 
C0196 1 
C0198 1 
C0199 1 
C0200 1 
C0201 1 
C0202 1 
C0203 1 
C0204 1 
C0205 1 
C0206 1 
C0207 1 
C0208 1 
C0209 1 
C0210 1 
C0211 1 
C0212 1 
C0213 1 
C0214 1 
C0215 1 
C0216 1 
C0217 1 
C0218 1 
C0219 1 
C0220 1 
C0221 1 
C0222 1 
C0223 1 
C0224 1 
C0225 1 
C0226 1 
C0227 1 
C0228 1 
C0229 1 
C0230 1 
C0231 1 
C0232 1 
C0233 1 
C0234 1 
C0235 1 
C0236 1 
C0237 1 
C0238 1 
C0239 1 
C0240 1 
C0241 1 
C0243 1 
C0244 1 
C0245 1 
C0246 1 
C0247 1 
C0248 1 
C0249 1 
C0250 1 
C0251 1 
C0252 1 
C0253 1 
C0254 1 
C0255 1 
C0256 1 
C0257 1 
C0258 1 
C0259 1 
C0260 1 
C0261 1 
C0262 1 
C0263 1 
C0264 1 
C0265 1 
C0266 1 
C0267 1 
C0268 1 
C0269 1 
C0270 1 
C0271 1 
C0274 1 
C0275 1 
C0276 1 
C0277 1 
C0278 1 
C0279 1 
C0280 1 
C0281 1 
C0282 1 
C0283 1 
C0284 1 
C0285 1 
C0286 1 
C0287 1 
C0288 1 
C0289 1 
C0290 1 
C0291 1 
C0292 1 
C0293 1 
C0294 1 
C0295 1 
C0296 1 
C0297 1 
C0298 1 
C0299 1 
C0300 1 
C0301 1 
C0302 1 
C0303 1 
C0304 1 
C0305 1 
C0306 1 
C0307 1 
C0308 1 
C0309 1 
C0310 1 
C0311 1 
C0313 1 
C0314 1 
C0315 1 
C0316 1 
C0317 1 
C0318 1 
C0319 1 
C0320 1 
C0321 1 
C0322 1 
C0323 1 
C0324 1 
C0325 1 
C0326 1 
C0327 1 
C0328 1 
C0329 1 
C0330 1 
C0331 1 
C0332 1 
C0333 1 
C0334 1 
C0335 1 
C0336 1 
C0337 1 
C0338 1 
C0339 1 
C0340 1 
C0341 1 
C0342 1 
C0343 1 
C0345 1 
C0346 1 
C0347 1 
C0348 1 
C0349 1 
C0350 1 
C0351 1 
C0352 1 
C0353 1 
C0354 1 
C0355 1 
C0356 1 
C0357 1 
C0358 1 
C0359 1 
C0360 1 
C0361 1 
C0362 1 
C0363 1 
C0364 1 
C0365 1 
C0366 1 
C0367 1 
C0368 1 
C0369 1 
C0370 1 
C0371 1 
C0372 1 
C0373 1 
C0374 1 
C0375 1 
C0376 1 
C0377 1 
C0378 1 
C0379 1 
C0380 1 
C0381 1 
C0382 1 
C0383 1 
C0384 1 
C0385 1 
C0386 1 
C0387 1 
C0388 1 
C0389 1 
C0390 1 
C0392 1 
C0393 1 
C0394 1 
C0395 1 
C0397 1 
C0398 1 
C0399 1 
C0400 1 
C0401 1 
C0402 1 
C0403 1 
C0404 1 
C0405 1 
C0406 1 
C0407 1 
C0408 1 
C0409 1 
C0410 1 
C0412 1 
C0413 1 
C0414 1 
C0415 1 
C0416 1 
C0417 1 
C0418 1 
C0420 1 
C0421 1 
C0422 1 
C0423 1 
C0424 1 
C0425 1 
C0426 1 
C0427 1 
C0428 1 
C0429 1 
C0430 1 
C0431 1 
C0432 1 
C0433 1 
C0434 1 
C0435 1 
C0436 1 
C0437 1 
C0438 1 
C0439 1 
C0440 1 
C0441 1 
C0442 1 
C0443 1 
C0444 1 
C0445 1 
C0446 1 
C0447 1 
C0448 1 
C0449 1 
C0450 1 
C0451 1 
C0452 1 
C0453 1 
C0454 1 
C0455 1 
C0456 1 
C0457 1 
C0458 1 
C0459 1 
C0460 1 
C0461 1 
C0462 1 
C0463 1 
C0464 1 
C0465 1 
C0466 1 
C0467 1 
C0468 1 
C0469 1 
C0470 1 
C0471 1 
C0472 1 
C0473 1 
C0474 1 
C0475 1 
C0494 2 
C0502 2 
C0512 1 
C0514 2 
C0516 1 
C0517 2 
C0521 2 
C0537 2 
C0546 2 
C0560 2 
C0571 1 
C0585 1 
C0606 2 
C0608 1 
C0612 2 
C0617 2 
C0639 2 
C0643 2 
C0644 1 
C0680 1 
C0705 2 
C0711 2 
C0715 1 
C0736 2 
C0738 2 
C0744 1 
C0749 2 
C0753 2 
C0767 2 
C0775 2 
C0777 1 
C0783 1 
C0784 2 
C0785 1 
C0786 1 
C0788 1 
C0816 2 
C0820 2 
C0821 2 
C0823 1 
C0824 1 
C0826 2 
C0827 2 
C0831 1 
C0833 1 
C0840 2 
C0848 2 
C0853 2 
C0854 1 
C0858 2 
C0861 2 
C0867 2 
C0889 2 
C0892 1 
C0899 1 
C0900 1 
C0923 2 
C0926 1 
C0935 1 
C0942 1 
C0948 2 
C0952 1 
C0953 1 
C0954 1 
C0955 2 
C0956 1 
C0957 2 
C0958 1 
C0959 1 
C0961 1 
C0962 2 
C0964 1 
C0965 1 
C0966 2 
C0967 1 
C0968 1 
C0970 2 
C0971 1 
C0973 1 
C0974 2 
C0975 2 
C0976 1 
C0978 1 
C0979 1 
C0980 1 
C0981 1 
C0982 2 
C0983 1 
C0985 2 
C0986 1 
C0987 1 
C0988 2 
C0990 1 
C0991 1 
C0993 2 
C0994 1 
C0995 2 
C0998 2 
C0999 2 
C1000 2 
C1001 1 
C1002 2 
C1003 1 
C1004 1 
C1005 1 
C1006 2 
C1007 1 
C1008 1 
C1009 1 
C1010 1 
C1011 2 
C1013 2 
C1014 2 
C1015 1 
C1016 2 
C1017 2 
C1018 2 
C1019 2 
C1020 2 
C1022 1 
C1023 1 
C1024 1 
C1025 2 
C1026 1 
C1027 1 
C1028 2 
C1029 1 
C1030 2 
C1031 1 
C1032 1 
C1033 2 
C1034 2 
C1036 2 
C1037 2 
C1038 1 
C1039 2 
C1040 1 
C1041 1 
C1042 2 
C1044 2 
C1045 1 
C1046 1 
C1047 2 
C1048 2 
C1049 2 
C1050 1 
C1051 2 
C1052 2 
C1053 1 
C1054 2 
C1055 1 
C1056 2 
C1057 2 
C1058 1 
C1059 1 
C1060 1 
C1061 2 
C1062 1 
C1063 1 
C1064 2 
C1066 2 
C1067 2 
C1068 1 
C1069 2 
C1070 2 
C1071 1 
C1072 1 
C1073 2 
C1074 2 
C1075 2 
C1076 1 
C1077 2 
C1078 1 
C1079 2 
C1080 2 
C1082 1 
C1083 1 
C1084 1 
C1085 2 
C1086 1 
C1088 1 
C1089 1 
C1090 2 
C1093 1 
C1094 2 
C1095 1 
C1096 1 
C1097 1 
C1098 1 
C1100 2 
C1101 2 
C1102 2 
C1103 1 
C1104 2 
C1105 1 
C1106 2 
C1107 2 
C1108 2 
C1109 2 
C1110 2 
C1111 2 
C1112 1 
C1113 2 
C1115 1 
C1116 1 
C1117 2 
C1119 1 
C1120 2 
C1121 1 
C1123 1 
C1124 2 
C1125 1 
C1126 1 
C1127 2 
C1128 1 
C1130 1 
C1131 1 
C1132 1 
C1133 1 
C1134 2 
C1135 1 
C1137 2 
C1138 2 
C1139 1 
C1140 2 
C1141 1 
C1142 2 
C1143 2 
C1144 1 
C1145 2 
C1146 2 
C1148 1 
C1149 2 
C1150 2 
C1151 2 
C1152 1 
C1153 1 
C1154 2 
C1155 1 
C1156 1 
C1157 2 
C1158 1 
C1159 2 
C1160 2 
C1161 2 
C1162 2 
C1163 2 
C1164 2 
C1165 1 
C1166 2 
C1167 2 
C1168 2 
C1169 2 
C1170 1 
C1171 1 
C1172 2 
C1173 1 
C1174 2 
C1175 1 
C1176 2 
C1177 1 
C1178 2 
C1179 2 
C1181 2 
C1182 2 
C1183 1 
C1184 2 
C1185 1 
C1187 1 
C1188 2 
C1189 2 
C1190 1 
C1191 1 
C1193 1 
C1194 1 
C1195 2 
C1196 2 
C1197 2 
C1198 2 
C1199 2 
C1200 2 
C1201 1 
C1202 2 
C1203 1 
C1204 2 
C1205 2 
C1206 2 
C1207 1 
C1208 1 
C1209 2 
C1210 1 
C1212 1 
C1214 2 
C1215 1 
C1216 2 
C1217 1 
C1218 1 
C1219 1 
C1220 2 
C1221 1 
C1225 1 
C1226 1 
C1227 1 
C1229 2 
C1230 1 
C1231 2 
C1232 2 
C1233 2 
C1234 2 
C1235 1 
C1236 1 
C1237 1 
C1238 1 
C1239 2 
C1240 1 
C1241 1 
C1243 2 
C1244 1 
C1245 2 
C1246 2 
C1247 2 
C1248 2 
C1249 2 
C1251 1 
C1252 1 
C1253 1 
C1254 1 
C1255 1 
C1256 1 
C1257 1 
C1258 1 
C1260 1 
C1263 1 
C1264 1 
C1265 2 
C1266 1 
C1267 2 
C1268 2 
C1269 1 
C1270 1 
C1271 1 
C1272 1 
C1273 2 
C1274 1 
C1275 2 
C1276 2 
C1277 2 
C1278 1 
C1279 2 
C1280 2 
C1281 1 
C1282 1 
C1283 2 
C1284 1 
C1285 1 
C1286 2 
C1287 2 
C1288 2 
C1289 2 
C1290 2 
C1292 2 
C1293 2 
C1297 2 
C1298 1 
C1299 1 
C1300 1 
C1303 2 
C1304 2 
C1305 2 
C1306 1 
C1307 2 
C1308 1 
C1309 2 
C1310 1 
C1311 1 
C1312 2 
C1313 2 
C1314 1 
C1316 2 
C1317 2 
C1318 1 
C1319 2 
C1320 1 
C1321 1 
C1322 2 
C1325 1 
C1326 2 
C1327 2 
C1329 1 
C1330 1 
C1331 1 
C1332 2 
C1334 1 
C1335 2 
C1337 1 
C1338 2 
C1339 1 
C1340 1 
C1343 2 
C1344 1 
C1345 1 
C1347 1 
C1348 1 
C1349 1 
C1350 2 
C1351 2 
C1352 2 
C1353 2 
C1354 1 
C1355 1 
C1356 2 
C1357 1 
C1358 1 
C1359 1 
C1360 1 
C1362 1 
C1363 2 
C1365 1 
C1366 2 
C1367 1 
C1368 2 
C1370 2 
C1371 1 
C1372 1 
C1373 2 
C1374 1 
C1375 1 
C1376 2 
C1377 1 
C1378 2 
C1379 1 
C1380 1 
C1381 1 
C1382 1 
C1383 1 
C1384 2 
C1385 1 
C1386 2 
C1387 1 
C1388 1 
C1389 1 
C1390 2 
C1391 1 
C1392 1 
C1393 1 
C1394 1 
C1395 2 
C1396 1 
C1397 1 
C1399 2 
C1400 1 
C1401 1 
C1402 2 
C1403 1 
C1404 1 
C1405 2 
C1406 2 
C1407 2 
C1408 1 
C1409 2 
C1410 1 
C1411 1 
C1412 2 
C1413 1 
C1414 2 
C1415 1 
C1416 1 
C1417 1 
C1418 2 
C1419 1 
C1420 2 
C1421 2 
C1422 1 
C1424 2 
C1425 2 
C1427 2 
C1428 2 
C1429 2 
C1431 2 
C1433 2 
C1434 2 
C1436 2 
C1439 2 
C1440 2 
C1442 2 
C1443 2 
C1446 2 
C1448 2 
C1451 2 
C1453 2 
C1454 2 
C1455 2 
C1456 2 
C1458 2 
C1461 2 
C1465 2 
C1469 2 
C1476 2 
C1478 2 
C1479 2 
C1480 2 
C1482 2 
C1483 2 
C1484 2 
C1485 2 
C1490 2 
C1497 2 
C1498 2 
C1499 2 
C1501 2 
C1502 2 
C1504 2 
C1506 2 
C1507 2 
C1513 2 
C1515 2 
C1516 2 
C1520 2 
C1525 2 
C1528 2 
C1530 2 
C1533 2 
C1534 2 
C1537 2 
C1538 2 
C1543 2 
C1546 2 
C1547 2 
C1551 2 
C1553 2 
C1557 2 
C1559 2 
C1561 2 
C1563 2 
C1564 2 
C1568 2 
C1570 2 
C1571 2 
C1572 2 
C1573 2 
C1578 2 
C1580 2 
C1587 2 
C1590 2 
C1591 2 
C1596 2 
C1598 2 
C1600 2 
C1601 2 
C1603 2 
C1604 3 
C1605 2 
C1606 2 
C1607 2 
C1608 2 
C1610 2 
C1614 2 
C1616 2 
C1619 2 
C1623 2 
C1627 2 
C1628 2 
C1631 2 
C1633 2 
C1640 2 
C1645 2 
C1646 2 
C1648 2 
C1650 2 
C1652 2 
C1658 2 
C1660 2 
C1662 2 
C1666 2 
C1668 2 
C1669 2 
C1676 2 
C1678 2 
C1682 2 
C1683 2 
C1685 2 
C1687 2 
C1690 2 
C1692 2 
C1693 2 
C1696 2 
C1700 2 
C1701 2 
C1702 2 
C1705 2 
C1710 2 
C1711 2 
C1712 2 
C1713 2 
C1715 2 
C1716 2 
C1719 2 
C1726 2 
C1728 2 
C1729 2 
C1730 2 
C1731 2 
C1732 2 
C1736 1 
C1739 2 
C1741 2 
C1744 2 
C1745 2 
C1746 2 
C1747 2 
C1749 2 
C1753 2 
C1756 2 
C1757 2 
C1759 2 
C1760 2 
C1775 2 
C1785 2 
C1786 2 
C1789 2 
C1793 2 
C1795 2 
C1796 2 
C1799 3 
C1800 2 
C1805 2 
C1806 2 
C1809 2 
C1812 2 
C1814 2 
C1815 2 
C1819 2 
C1820 2 
C1822 2 
C1823 2 
C1824 2 
C1829 2 
C1830 2 
C1832 2 
C1833 2 
C1834 2 
C1835 2 
C1837 2 
C1840 2 
C1846 2 
C1847 2 
C1852 2 
C1854 2 
C1855 2 
C1856 2 
C1857 2 
C1858 2 
C1860 2 
C1862 2 
C1863 2 
C1864 2 
C1866 2 
C1867 2 
C1868 2 
C1869 2 
C1871 2 
C1872 2 
C1875 2 
C1878 2 
C1879 2 
C1883 2 
C1886 2 
C1888 2 
C1890 2 
C1891 2 
C1894 2 
C1897 2 
C1912 2 
C1916 2 
C1924 2 
C1938 2 
C1943 2 
C1945 2 
C1948 2 
C1949 2 
C1956 2 
C1961 2 
C1963 2 
C1964 2 
C1966 1 
C1968 2 
C1970 2 
C1975 2 
C1978 2 
C1983 2 
C1987 2 
C1989 2 
C1992 2 
C1997 2 
C1998 2 
C2001 2 
C2002 2 
C2006 2 
C2007 2 
C2011 2 
C2014 2 
C2020 2 
C2023 2 
C2027 2 
C2040 2 
C2050 2 
C2051 2 
C2052 2 
C2054 2 
C2056 2 
C2057 2 
C2058 2 
C2059 2 
C2061 1 
C2063 2 
C2067 2 
C2070 2 
C2077 2 
C2084 2 
C2090 2 
C2092 2 
C2095 2 
C2104 2 
C2107 2 
C2109 2 
C2111 2 
C2112 2 
C2117 2 
C2118 2 
C2128 2 
C2129 2 
C2132 2 
C2134 2 
C2146 2 
C2147 2 
C2155 2 
C2164 2 
C2166 2 
C2170 2 
C2179 2 
C2182 2 
C2183 2 
C2184 2 
C2189 2 
C2195 2 
C2196 2 
C2197 2 
C2199 2 
C2210 1 
C2211 1 
C2215 2 
C2229 2 
C2238 2 
C2259 2 
C2262 2 
C2266 2 
C2282 2 
C2300 2 
C2301 2 
C2303 2 
C2316 2 
C2318 1 
C2320 1 
C2323 2 
C2325 1 
C2334 2 
C2340 1 
C2345 2 
C2349 2 
C2352 2 
C2355 2 
C2356 2 
C2357 2 
C2359 2 
C2360 1 
C2362 2 
C2364 2 
C2368 2 
C2370 2 
C2371 2 
C2374 2 
C2375 2 
